NAME : morphed20-2-13
COMMENT : Generated using the function morphInstances from the R-package netgen (Bossek,2015) - Number of clusters: 2 Alpha: 0.5
TYPE : TSP
DIMENSION : 20
EDGE_WEIGHT_TYPE : EUC_2D
NODE_COORD_SECTION
1 76.8092234416 11.1336078648
2 17.97872287 55.1786250359
3 24.8310364847 63.3621082573
4 6.5680193577 54.5045903959
5 90.9577331481 7.8504138042
6 0.8839134189 60.6791323963
7 65.9237719701 2.7075972659
8 69.4066279982 33.9724660498
9 87.147134498 25.8099591054
10 3.6116903839 64.2744457042
11 62.6320093595 37.4687401961
12 84.8858214094 29.9767885046
13 44.9960017741 89.1749275957
14 35.7945223457 75.6895182704
15 37.0897982496 55.2259050245
16 48.5790387387 13.5496610176
17 19.7819094325 46.8587308831
18 61.8937149295 10.5975598936
19 45.5472967152 66.0031201922
20 71.789796005 8.4888260985
EOF
